
  22   10
  10   10   10   10   10   10   10   10   10   10

   0   0   0   0   0   0   0   0   0   0   0   2 2 3 
   1  10  10  10  10  10  10  10  10  10  10   2 6 5 
   2  10  10  10  10  10  10  10  10  10  10   2 8 4 
   3  10  10  10  10  10  10  10  10  10  10   2 14 5 
   6  10  10  10  10  10  10  10  10  10  10   2 11 7 
   7  10  10  10  10  10  10  10  10  10  10   2 9 8 
  10  10  10  10  10  10  10  10  10  10  10   2 13 9 
   7  10  10  10  10  10  10  10  10  10  10   2 14 11 
   9  10  10  10  10  10  10  10  10  10  10   1 10 
   9  10  10  10  10  10  10  10  10  10  10   2 15 12 
   9  10  10  10  10  10  10  10  10  10  10   2 15 12 
   1  10  10  10  10  10  10  10  10  10  10   3 18 17 16 
  10  10  10  10  10  10  10  10  10  10  10   2 21 16 
  10  10  10  10  10  10  10  10  10  10  10   1 16 
   9  10  10  10  10  10  10  10  10  10  10   2 21 20 
   6  10  10  10  10  10  10  10  10  10  10   1 19 
   5  10  10  10  10  10  10  10  10  10  10   1 19 
   1  10  10  10  10  10  10  10  10  10  10   1 19 
   7  10  10  10  10  10  10  10  10  10  10   1 20 
   4  10  10  10  10  10  10  10  10  10  10   1 22
  10  10  10  10  10  10  10  10  10  10  10   1 22
   0   0   0   0   0   0   0   0   0   0   0   0 
